SDVRP instances/custom_instances/p02_7_splitx10_0.vrp
NAME:p02_7_splitx10_
BEST_KNOWN: 0
COMMENT: 0
DIMENSION: 357
CAPACITY: 1400
EDGE_WEIGHT_FORMAT: FUNCTION
EDGE_WEIGHT_TYPE: EXACT_2D
NODE_COORD_SECTION
1 0.00000 0.00000
2 16 -40
3 16 -40
4 16 -40
5 16 -40
6 16 -40
7 16 -40
8 1 -22
9 1 -22
10 1 -22
11 1 -22
12 -38 47
13 -38 47
14 -38 47
15 -38 47
16 14 20
17 14 20
18 14 20
19 14 20
20 14 20
21 14 20
22 7 49
23 7 49
24 7 49
25 7 49
26 7 49
27 -5 -35
28 -5 -35
29 -5 -35
30 -5 -35
31 -5 -35
32 24 -2
33 24 -2
34 24 -2
35 24 -2
36 24 -2
37 24 -2
38 -26 16
39 -26 16
40 -26 16
41 -26 16
42 6 42
43 6 42
44 6 42
45 6 42
46 6 42
47 -34 15
48 -34 15
49 -34 15
50 49 9
51 49 9
52 49 9
53 49 9
54 49 9
55 49 9
56 3 -34
57 3 -34
58 3 -34
59 3 -34
60 3 -34
61 30 -38
62 30 -38
63 30 -38
64 30 -38
65 12 44
66 12 44
67 12 44
68 12 44
69 12 44
70 12 44
71 -12 -48
72 -12 -48
73 -12 -48
74 28 6
75 28 6
76 34 -11
77 34 -11
78 34 -11
79 34 -11
80 34 -11
81 34 -11
82 -41 17
83 12 -13
84 12 -13
85 2 33
86 2 33
87 2 33
88 -39 -43
89 -39 -43
90 -39 -43
91 -39 -43
92 9 3
93 9 3
94 9 3
95 9 3
96 9 3
97 9 3
98 8 15
99 8 15
100 8 15
101 8 15
102 8 15
103 35 -32
104 35 -32
105 35 -32
106 35 -32
107 -37 44
108 -37 44
109 -37 44
110 -37 44
111 -37 44
112 -37 44
113 -37 44
114 -37 44
115 25 -33
116 25 -33
117 25 -33
118 25 -33
119 25 -33
120 49 -45
121 49 -45
122 49 -45
123 26 -30
124 26 -30
125 26 -30
126 26 -30
127 26 -30
128 26 -30
129 26 -30
130 26 -30
131 4 -23
132 4 -23
133 4 -23
134 4 -23
135 4 -23
136 4 -23
137 4 -23
138 -4 -28
139 -4 -28
140 -4 -28
141 -4 -28
142 -4 -28
143 -4 -28
144 20 -34
145 20 -34
146 20 -34
147 20 -34
148 20 -34
149 20 -34
150 21 -50
151 21 -50
152 21 -50
153 21 -50
154 21 -50
155 21 -50
156 21 -50
157 21 -50
158 43 36
159 43 36
160 24 10
161 24 10
162 24 10
163 24 10
164 24 10
165 24 10
166 28 10
167 28 10
168 28 10
169 40 23
170 40 23
171 40 23
172 40 23
173 40 23
174 -4 -16
175 -4 -16
176 -4 -16
177 -4 -16
178 20 -19
179 20 -19
180 20 -19
181 20 -19
182 27 42
183 27 42
184 27 42
185 -25 44
186 -25 44
187 -32 -43
188 -32 -43
189 -32 -43
190 -32 -43
191 -32 -43
192 -32 -43
193 -32 -43
194 27 -15
195 27 -15
196 27 -15
197 -10 -25
198 -10 -25
199 -10 -25
200 -10 -25
201 -10 -25
202 -2 42
203 -2 42
204 -25 -32
205 -25 -32
206 -34 21
207 -34 21
208 -34 21
209 -34 21
210 -34 21
211 -34 21
212 -45 21
213 -34 -13
214 -34 -13
215 -34 -13
216 -34 -13
217 -34 -13
218 -26 -36
219 -26 -36
220 -26 -36
221 -26 -36
222 -26 -36
223 -20 -32
224 -20 -32
225 -20 -32
226 -20 -32
227 -23 -42
228 -23 -42
229 -23 -42
230 -23 -42
231 -23 -42
232 -38 -4
233 -38 -4
234 -38 -4
235 -38 -4
236 -38 -4
237 13 -25
238 13 -25
239 13 -25
240 13 -25
241 13 -25
242 13 -25
243 13 -25
244 13 -25
245 -26 -21
246 -26 -21
247 -26 -21
248 -26 -21
249 -26 -21
250 21 -7
251 21 -7
252 21 -7
253 21 -7
254 21 -7
255 21 -7
256 21 -7
257 21 -7
258 -35 38
259 -35 38
260 -35 38
261 -13 36
262 -13 36
263 -13 36
264 -13 36
265 -13 27
266 -13 27
267 -13 27
268 -13 27
269 -13 27
270 -13 27
271 -13 27
272 -29 34
273 -29 34
274 -29 34
275 -29 34
276 -29 34
277 28 30
278 28 30
279 28 30
280 28 30
281 28 30
282 28 30
283 28 30
284 -17 -48
285 -17 -48
286 -17 -48
287 -17 -48
288 -17 -48
289 49 45
290 49 45
291 49 45
292 49 45
293 49 45
294 49 45
295 28 -37
296 28 -37
297 28 -37
298 28 -37
299 28 -37
300 38 -30
301 38 -30
302 38 -30
303 38 -30
304 38 -30
305 38 -30
306 -45 -1
307 -45 -1
308 -45 -1
309 -45 -1
310 -45 -1
311 -45 -1
312 -45 -1
313 2 38
314 2 38
315 2 38
316 2 38
317 2 38
318 2 38
319 2 38
320 42 -3
321 42 -3
322 42 -3
323 42 -3
324 42 -3
325 21 31
326 21 31
327 21 31
328 21 31
329 21 31
330 0 30
331 0 30
332 0 30
333 0 30
334 0 30
335 4 -22
336 4 -22
337 -17 6
338 -17 6
339 8 -23
340 8 -23
341 8 -23
342 8 -23
343 30 24
344 30 24
345 30 24
346 30 24
347 30 24
348 -32 -48
349 -32 -48
350 -32 -48
351 -32 -48
352 -32 -48
353 -32 -48
354 45 38
355 45 38
356 45 38
357 45 38
DEMAND_SECTION
1 0
2 140
3 70
4 14
5 14
6 14
7 8
8 140
9 14
10 14
11 12
12 280
13 280
14 70
15 10
16 140
17 14
18 14
19 14
20 14
21 4
22 280
23 70
24 14
25 14
26 12
27 280
28 70
29 14
30 14
31 12
32 280
33 140
34 14
35 14
36 14
37 8
38 280
39 14
40 14
41 12
42 280
43 280
44 14
45 14
46 12
47 280
48 70
49 10
50 280
51 14
52 14
53 14
54 14
55 4
56 280
57 140
58 14
59 14
60 12
61 280
62 70
63 14
64 6
65 280
66 140
67 14
68 14
69 14
70 8
71 280
72 280
73 70
74 140
75 70
76 280
77 140
78 70
79 14
80 14
81 2
82 280
83 140
84 70
85 140
86 70
87 10
88 280
89 140
90 14
91 6
92 280
93 280
94 14
95 14
96 14
97 8
98 140
99 70
100 14
101 14
102 2
103 280
104 70
105 14
106 6
107 280
108 280
109 70
110 14
111 14
112 14
113 14
114 4
115 140
116 70
117 14
118 14
119 12
120 280
121 140
122 70
123 280
124 140
125 70
126 14
127 14
128 14
129 14
130 4
131 280
132 280
133 14
134 14
135 14
136 14
137 4
138 280
139 70
140 14
141 14
142 14
143 8
144 280
145 140
146 70
147 14
148 14
149 12
150 280
151 280
152 70
153 14
154 14
155 14
156 14
157 4
158 140
159 70
160 280
161 140
162 70
163 14
164 14
165 2
166 280
167 280
168 140
169 280
170 14
171 14
172 14
173 8
174 280
175 14
176 14
177 12
178 280
179 140
180 14
181 6
182 280
183 70
184 10
185 280
186 140
187 280
188 280
189 14
190 14
191 14
192 14
193 4
194 280
195 280
196 140
197 280
198 280
199 14
200 14
201 2
202 280
203 70
204 280
205 10
206 280
207 280
208 70
209 14
210 14
211 2
212 280
213 280
214 14
215 14
216 14
217 8
218 280
219 70
220 14
221 14
222 12
223 140
224 70
225 14
226 6
227 280
228 140
229 14
230 14
231 2
232 280
233 70
234 14
235 14
236 2
237 280
238 280
239 70
240 14
241 14
242 14
243 14
244 4
245 280
246 140
247 14
248 14
249 2
250 280
251 280
252 70
253 14
254 14
255 14
256 14
257 4
258 140
259 70
260 10
261 140
262 14
263 14
264 12
265 280
266 140
267 70
268 14
269 14
270 14
271 8
272 280
273 140
274 70
275 14
276 6
277 280
278 140
279 70
280 14
281 14
282 14
283 8
284 280
285 280
286 70
287 14
288 6
289 280
290 14
291 14
292 14
293 14
294 4
295 280
296 280
297 70
298 14
299 6
300 140
301 14
302 14
303 14
304 14
305 4
306 280
307 70
308 14
309 14
310 14
311 14
312 4
313 280
314 280
315 70
316 14
317 14
318 14
319 8
320 140
321 70
322 14
323 14
324 12
325 280
326 140
327 14
328 14
329 12
330 280
331 140
332 14
333 14
334 2
335 280
336 70
337 280
338 70
339 140
340 70
341 14
342 6
343 280
344 280
345 70
346 14
347 6
348 140
349 14
350 14
351 14
352 14
353 4
354 280
355 140
356 70
357 10
DEPOT_SECTION
1
-1
EOF