SDVRP instances/custom_instances/p02_7_splitx10_0.sol
356 -6 3 1 5 2 4 153 155 154 152 150 149 151 156 143 145 240 238 243 -9 7 10 8 133 132 134 136 131 135 130 335 334 -13 12 14 11 110 113 109 106 112 107 108 111 -18 20 15 16 17 69 66 64 68 67 65 21 25 23 24 22 202 201 -19 324 326 328 325 327 182 181 183 277 278 281 282 279 280 276 -30 28 27 72 70 71 287 284 283 286 285 -35 34 31 33 32 36 255 249 256 250 251 253 252 254 82 83 -39 38 40 208 210 207 209 206 205 211 81 48 47 -42 44 45 43 41 315 318 316 314 312 313 317 85 332 331 -46 309 308 307 305 311 306 310 231 235 233 232 234 214 213 215 212 216 -73 166 167 165 163 164 161 159 160 162 96 93 -74 323 322 320 321 319 49 50 54 53 51 52 344 342 343 346 345 -76 75 80 78 79 77 194 193 195 -90 88 87 89 351 348 347 352 350 349 189 192 188 190 187 191 186 220 221 218 -95 94 92 91 98 97 100 99 101 86 84 333 329 330 -125 129 126 123 128 124 127 122 114 115 237 239 242 236 241 -142 141 138 140 139 137 29 26 56 59 57 55 58 340 338 341 339 -147 144 146 148 295 298 294 296 297 63 61 62 60 116 117 118 180 178 -158 157 354 355 353 356 289 293 292 290 291 288 168 170 171 169 172 -176 175 174 173 199 198 200 196 197 244 245 246 247 248 -179 177 103 104 105 102 121 119 120 299 304 300 301 302 303 -203 204 219 217 226 227 228 230 229 222 223 224 225 -260 262 263 261 185 184 258 259 257 272 275 271 273 274 -268 269 267 266 270 264 265 37 336 337 0 





OBJ=
2319.866
BEST_KNOWN=
0.000